NAME : n150w20.001.1034.tour
COMMENT : Length = 1034
COMMENT : Found by LKH [Keld Helsgaun] Tue May  2 05:48:15 2017
TYPE : TOUR
DIMENSION : 151
TOUR_SECTION
1
100
93
23
96
41
133
150
66
49
135
44
105
34
47
68
46
87
147
126
83
32
6
26
144
63
122
85
138
65
30
148
119
72
5
149
42
79
4
125
33
95
60
69
109
128
52
43
111
7
18
99
78
97
103
12
19
98
113
118
101
61
35
15
117
62
24
73
107
31
92
129
123
48
54
64
37
2
10
120
91
131
115
106
38
142
94
127
75
143
74
70
112
124
130
84
16
108
71
141
9
82
132
8
13
146
136
57
59
77
27
11
55
67
89
45
80
20
56
53
58
137
3
114
25
21
81
139
86
28
22
39
134
102
110
116
104
50
36
29
88
76
40
140
90
14
17
121
51
151
145
-1
EOF
